DIR: 0.0, EFF: 0.8333333333333333, INT: 0.08333333333333333, OBJ: 0.08333333333333333
original problem has 11894 variables (8574 bin, 3020 int, 0 impl, 300 cont) and 20765 constraints
unknown variable <t_u(4,7)> in line 2 of solution file </mnt/lscratch/users/dferrario/Adaptive-Cutsel-MILP/TransformedSolutions/allcolor10__trans__seed__1.sol>
  (further unknown variables are ignored)
1/1 feasible solution given by solution candidate storage, new primal bound 1.590000e+02

presolving:
   (0.1s) running MILP presolver
   (0.3s) MILP presolver (7 rounds): 0 aggregations, 0 fixings, 0 bound changes
   (4.5s) probing: 1000/3228 (31.0%) - 0 fixings, 0 aggregations, 264701 implications, 0 bound changes
   (4.5s) probing: 1001/3228 (31.0%) - 0 fixings, 0 aggregations, 264954 implications, 0 bound changes
   (4.5s) probing aborted: 1000/1000 successive useless probings
presolving (1 rounds: 1 fast, 1 medium, 1 exhaustive):
 5598 deleted vars, 96 deleted constraints, 96 added constraints, 0 tightened bounds, 0 added holes, 24 changed sides, 0 changed coefficients
 155499 implications, 51586 cliques
presolved problem has 6296 variables (3212 bin, 3020 int, 16 impl, 48 cont) and 20765 constraints
  12442 constraints of type <varbound>
   2797 constraints of type <setppc>
   5526 constraints of type <linear>
Presolving Time: 4.63
transformed 1/1 original solutions to the transformed problem space

 time | node  | left  |LP iter|LP it/n|mem/heur|mdpt |vars |cons |rows |cuts |sepa|confs|strbr|  dualbound   | primalbound  |  gap   | compl. 
  6.5s|     1 |     0 |  8267 |     - |   147M |   0 |6296 |  20k|  20k|   0 |  0 |   0 |   0 | 6.000000e+00 | 1.590000e+02 |2550.00%| unknown
Computing relative interior point (time limit: 13.5171, iter limit: 82670) ...
 17.9s|     1 |     0 | 13265 |     - |   167M |   0 |6296 |  20k|  20k|  10 |  1 |   0 |   0 | 6.000000e+00 | 1.590000e+02 |2550.00%| unknown
 20.0s|     1 |     0 | 13265 |     - |   169M |   0 |6296 |  20k|  20k|  20 |  2 |   0 |   0 | 6.000000e+00 | 1.590000e+02 |2550.00%| unknown
(node 1) LP solver hit time limit in LP 2 -- using pseudo solution instead

SCIP Status        : solving was interrupted [time limit reached]
Solving Time (sec) : 20.01
Solving Nodes      : 1
Primal Bound       : +1.59000000000000e+02 (1 solutions)
Dual Bound         : +6.00000000000000e+00
Gap                : 2550.00 %
